20 20
39 25 1
55 64 1
48 37 1
59 58 1
59 76 1
42 6 1
74 94 1
51 56 1
92 89 1
90 59 1
62 61 1
69 16 1
86 63 1
100 74 1
13 42 1
80 36 1
43 49 1
70 50 1
74 84 1
98 68 1
100 100 
100 100 
100 100 
100 100 
100 100 
100 100 
100 100 
100 100 
100 100 
100 100 
100 100 
100 100 
100 100 
100 100 
100 100 
100 100 
100 100 
100 100 
100 100 
100 100 
